* ENCODING=ISO-8859-1
NAME          CPLEX
ROWS
 N  obj1    
 G  c1      
 G  c2      
 G  c3      
 G  c4      
 G  c5      
 G  c6      
 G  c7      
 G  c8      
 G  c9      
 G  c10     
 G  c11     
 G  c12     
 G  c13     
 G  c14     
 G  c15     
 G  c16     
 G  c17     
 G  c18     
 G  c19     
 G  c20     
 G  c21     
 G  c22     
 G  c23     
 G  c24     
 G  c25     
 G  c26     
 G  c27     
 G  c28     
 G  c29     
 G  c30     
 G  c31     
 G  c32     
 G  c33     
 G  c34     
 G  c35     
 G  c36     
 G  c37     
 G  c38     
 G  c39     
 G  c40     
 G  c41     
 G  c42     
 G  c43     
 G  c44     
 G  c45     
 G  c46     
 G  c47     
 G  c48     
 G  c49     
 G  c50     
 G  c51     
 G  c52     
 G  c53     
 G  c54     
 G  c55     
 G  c56     
 G  c57     
 G  c58     
 G  c59     
 G  c60     
COLUMNS
    MARK0000  'MARKER'                 'INTORG'
    x1        obj1                            1
    x1        c10                           564
    x1        c18                           312
    x1        c28                           378
    x2        obj1                            1
    x2        c2                            319
    x2        c4                            622
    x2        c9                            455
    x2        c35                           823
    x2        c37                           549
    x2        c53                           399
    x3        obj1                            1
    x3        c29                           792
    x3        c30                           454
    x3        c48                           468
    x4        obj1                            1
    x4        c1                            132
    x4        c24                           238
    x4        c26                           937
    x4        c28                           428
    x4        c35                           903
    x4        c36                           146
    x4        c44                           458
    x4        c47                           243
    x4        c50                           959
    x4        c51                           550
    x4        c56                           426
    x5        obj1                            1
    x5        c1                            841
    x5        c3                            416
    x5        c9                            996
    x5        c17                           478
    x5        c43                           385
    x5        c54                           436
    x5        c55                           761
    x6        obj1                            1
    x6        c30                           968
    x6        c39                           249
    x6        c40                           792
    x7        obj1                            1
    x7        c8                            973
    x7        c17                           781
    x7        c31                           968
    x7        c56                           399
    x8        obj1                            1
    x8        c8                            929
    x8        c16                           183
    x8        c27                           582
    x8        c48                           291
    x8        c52                           585
    x9        obj1                            1
    x9        c8                            262
    x9        c11                           647
    x9        c27                           315
    x9        c28                           391
    x9        c40                           293
    x9        c49                           664
    x9        c52                           950
    x9        c56                           387
    x9        c57                           527
    x10       obj1                            1
    x10       c2                            508
    x10       c8                            598
    x10       c16                           646
    x10       c29                           207
    x10       c32                           181
    x10       c38                           163
    x10       c41                           410
    x10       c43                           392
    x10       c54                           447
    x11       obj1                            1
    x11       c1                            859
    x11       c5                            929
    x11       c41                           471
    x11       c49                           574
    x11       c50                           367
    x12       obj1                            1
    x12       c5                            751
    x12       c6                            245
    x12       c9                            354
    x12       c22                           183
    x12       c33                           773
    x12       c36                           878
    x12       c38                           721
    x13       obj1                            1
    x13       c1                            973
    x13       c9                            823
    x13       c39                           251
    x13       c43                           582
    x13       c49                           869
    x14       obj1                            1
    x14       c17                           404
    x14       c21                           499
    x14       c50                           982
    x14       c54                           377
    x15       obj1                            1
    x15       c4                            789
    x15       c5                            616
    x15       c9                            262
    x15       c18                           372
    x15       c19                           796
    x15       c20                           576
    x15       c22                           681
    x15       c23                           648
    x15       c27                           717
    x15       c47                           799
    x16       obj1                            1
    x16       c17                           623
    x17       obj1                            1
    x17       c3                            190
    x17       c10                           971
    x17       c18                           870
    x17       c50                           758
    x17       c56                           190
    x17       c60                           445
    x18       obj1                            1
    x18       c10                           300
    x18       c32                           721
    x19       obj1                            1
    x19       c9                            981
    x19       c24                           267
    x19       c28                           175
    x19       c33                           498
    x19       c35                           922
    x19       c44                           456
    x20       obj1                            1
    x20       c5                            126
    x20       c19                           185
    x20       c20                           989
    x20       c36                           594
    x20       c42                           236
    x20       c60                           925
    x21       obj1                            1
    x21       c58                           562
    x22       obj1                            1
    x22       c7                            678
    x22       c9                            551
    x22       c17                           243
    x22       c24                           591
    x22       c31                           695
    x22       c60                           528
    x23       obj1                            1
    x23       c23                           379
    x23       c31                           404
    x23       c35                           117
    x23       c39                           563
    x23       c43                           541
    x24       obj1                            1
    x24       c30                           162
    x24       c43                           372
    x24       c47                           475
    x24       c60                           548
    x25       obj1                            1
    x25       c14                           904
    x25       c55                           359
    x25       c60                           273
    x26       obj1                            1
    x26       c7                            672
    x26       c15                           450
    x26       c18                           183
    x26       c29                           452
    x26       c30                           122
    x26       c32                           602
    x26       c41                           473
    x26       c49                           741
    x27       obj1                            1
    x27       c6                            838
    x27       c13                           444
    x27       c18                           113
    x27       c20                           608
    x27       c28                           567
    x27       c32                           355
    x27       c43                           220
    x27       c53                           986
    x28       obj1                            1
    x28       c3                            595
    x28       c5                            845
    x28       c8                            432
    x28       c28                           890
    x28       c39                           723
    x29       obj1                            1
    x29       c1                            842
    x29       c3                            305
    x29       c10                           343
    x29       c14                           854
    x29       c16                           903
    x29       c37                           175
    x29       c52                           660
    x29       c53                           819
    x29       c55                           931
    x30       obj1                            1
    x30       c13                           973
    x30       c27                           328
    x30       c36                           237
    x30       c39                           162
    x30       c48                           988
    x31       obj1                            1
    x31       c12                           181
    x31       c13                           268
    x31       c17                           680
    x31       c34                           300
    x32       obj1                            1
    x32       c4                            798
    x32       c8                            364
    x32       c21                           399
    x32       c46                           973
    x32       c55                           532
    x33       obj1                            1
    x33       c4                            716
    x33       c10                           129
    x33       c29                           517
    x33       c50                           973
    x33       c56                           364
    x34       obj1                            1
    x34       c37                           225
    x34       c38                           194
    x34       c39                           965
    x34       c40                           297
    x34       c49                           876
    x35       obj1                            1
    x35       c6                            493
    x35       c24                           316
    x35       c30                           348
    x35       c31                           505
    x35       c33                           969
    x35       c36                           616
    x35       c40                           245
    x35       c43                           768
    x35       c44                           996
    x35       c53                           289
    x36       obj1                            1
    x36       c3                            553
    x36       c25                           341
    x36       c40                           663
    x36       c48                           799
    x36       c49                           449
    x36       c53                           398
    x36       c60                           169
    x37       obj1                            1
    x37       c24                           167
    x37       c26                           249
    x37       c37                           357
    x37       c56                           448
    x37       c59                           145
    x37       c60                           838
    x38       obj1                            1
    x38       c4                            604
    x38       c15                           136
    x38       c17                           586
    x38       c18                           741
    x38       c36                           917
    x38       c38                           675
    x38       c40                           205
    x38       c43                           861
    x39       obj1                            1
    x39       c11                           173
    x39       c21                           527
    x39       c23                           662
    x39       c29                           153
    x39       c32                           413
    x39       c35                           989
    x39       c40                           769
    x39       c41                           509
    x39       c46                           296
    x39       c53                           693
    x39       c59                           882
    x40       obj1                            1
    x40       c2                            863
    x40       c52                           806
    x41       obj1                            1
    x41       c12                           399
    x41       c22                           948
    x41       c29                           686
    x41       c30                           454
    x41       c34                           499
    x42       obj1                            1
    x42       c3                            538
    x42       c6                            233
    x42       c7                            892
    x42       c28                           339
    x42       c33                           935
    x42       c40                           164
    x42       c41                           100
    x42       c50                           411
    x42       c59                           188
    x43       obj1                            1
    x43       c1                            506
    x43       c9                            232
    x43       c18                           473
    x43       c33                           575
    x43       c51                           678
    x43       c52                           818
    x44       obj1                            1
    x44       c7                            881
    x44       c11                           990
    x44       c31                           768
    x44       c32                           101
    x44       c37                           657
    x44       c42                           802
    x44       c46                           271
    x45       obj1                            1
    x45       c5                            650
    x45       c9                            946
    x45       c29                           756
    x45       c31                           710
    x45       c34                           980
    x45       c37                           805
    x45       c39                           795
    x45       c42                           673
    x45       c53                           378
    x45       c57                           108
    x46       obj1                            1
    x46       c2                            349
    x46       c14                           698
    x46       c28                           759
    x46       c32                           430
    x46       c44                           488
    x46       c45                           693
    x46       c49                           136
    x47       obj1                            1
    x47       c11                           455
    x47       c16                           976
    x47       c27                           545
    x47       c57                           549
    x47       c58                           916
    x48       obj1                            1
    x48       c13                           387
    x48       c22                           387
    x48       c37                           106
    x48       c41                           679
    x48       c43                           112
    x48       c54                           324
    x49       obj1                            1
    x49       c27                           169
    x49       c35                           757
    x49       c45                           792
    x50       obj1                            1
    x50       c25                           358
    x50       c29                           104
    x50       c31                           269
    x50       c44                           452
    x51       obj1                            1
    x51       c1                            833
    x51       c8                            101
    x51       c13                           782
    x51       c18                           719
    x51       c44                           417
    x51       c58                           148
    x52       obj1                            1
    x52       c3                            713
    x52       c17                           135
    x52       c35                           542
    x52       c45                           228
    x52       c49                           174
    x53       obj1                            1
    x53       c17                           699
    x53       c35                           363
    x53       c44                           260
    x53       c46                           217
    x53       c48                           537
    x53       c54                           582
    x54       obj1                            1
    x54       c5                            586
    x54       c56                           867
    x55       obj1                            1
    x55       c4                            798
    x55       c7                            886
    x55       c12                           134
    x55       c15                           699
    x55       c49                           871
    x55       c51                           808
    x56       obj1                            1
    x56       c2                            132
    x56       c6                            423
    x56       c30                           897
    x56       c34                           658
    x56       c59                           727
    x56       c60                           547
    x57       obj1                            1
    x57       c1                            460
    x57       c13                           891
    x57       c19                           667
    x57       c22                           706
    x57       c31                           485
    x57       c35                           386
    x57       c40                           607
    x57       c42                           173
    x57       c48                           415
    x57       c56                           799
    x58       obj1                            1
    x58       c3                            540
    x58       c4                            106
    x58       c7                            331
    x58       c18                           135
    x58       c25                           663
    x58       c26                           885
    x58       c50                           839
    x58       c56                           826
    x59       obj1                            1
    x59       c3                            447
    x59       c6                            604
    x59       c48                           941
    x60       obj1                            1
    x60       c7                            937
    x60       c28                           719
    x60       c29                           381
    x60       c31                           883
    x60       c32                           419
    x60       c53                           895
    x60       c54                           172
    x60       c60                           346
    MARK0001  'MARKER'                 'INTEND'
RHS
    rhs       c1                           2723
    rhs       c2                           1086
    rhs       c3                           2149
    rhs       c4                           2217
    rhs       c5                           2252
    rhs       c6                           1418
    rhs       c7                           2639
    rhs       c8                           1830
    rhs       c9                           2800
    rhs       c10                          1154
    rhs       c11                          1133
    rhs       c12                           357
    rhs       c13                          1873
    rhs       c14                          1228
    rhs       c15                           643
    rhs       c16                          1354
    rhs       c17                          2315
    rhs       c18                          1959
    rhs       c19                           824
    rhs       c20                          1087
    rhs       c21                           713
    rhs       c22                          1453
    rhs       c23                           845
    rhs       c24                           790
    rhs       c25                           681
    rhs       c26                          1036
    rhs       c27                          1328
    rhs       c28                          2323
    rhs       c29                          2024
    rhs       c30                          1703
    rhs       c31                          2844
    rhs       c32                          1611
    rhs       c33                          1875
    rhs       c34                          1219
    rhs       c35                          2901
    rhs       c36                          1694
    rhs       c37                          1437
    rhs       c38                           877
    rhs       c39                          1854
    rhs       c40                          2018
    rhs       c41                          1321
    rhs       c42                           942
    rhs       c43                          2117
    rhs       c44                          1764
    rhs       c45                           857
    rhs       c46                           879
    rhs       c47                           759
    rhs       c48                          2220
    rhs       c49                          2677
    rhs       c50                          2645
    rhs       c51                          1018
    rhs       c52                          1910
    rhs       c53                          2429
    rhs       c54                          1169
    rhs       c55                          1292
    rhs       c56                          2353
    rhs       c57                           592
    rhs       c58                           813
    rhs       c59                           971
    rhs       c60                          2310
BOUNDS
 LI bnd       x1        0
 LI bnd       x2        0
 LI bnd       x3        0
 LI bnd       x4        0
 LI bnd       x5        0
 LI bnd       x6        0
 LI bnd       x7        0
 LI bnd       x8        0
 LI bnd       x9        0
 LI bnd       x10       0
 LI bnd       x11       0
 LI bnd       x12       0
 LI bnd       x13       0
 LI bnd       x14       0
 LI bnd       x15       0
 LI bnd       x16       0
 LI bnd       x17       0
 LI bnd       x18       0
 LI bnd       x19       0
 LI bnd       x20       0
 LI bnd       x21       0
 LI bnd       x22       0
 LI bnd       x23       0
 LI bnd       x24       0
 LI bnd       x25       0
 LI bnd       x26       0
 LI bnd       x27       0
 LI bnd       x28       0
 LI bnd       x29       0
 LI bnd       x30       0
 LI bnd       x31       0
 LI bnd       x32       0
 LI bnd       x33       0
 LI bnd       x34       0
 LI bnd       x35       0
 LI bnd       x36       0
 LI bnd       x37       0
 LI bnd       x38       0
 LI bnd       x39       0
 LI bnd       x40       0
 LI bnd       x41       0
 LI bnd       x42       0
 LI bnd       x43       0
 LI bnd       x44       0
 LI bnd       x45       0
 LI bnd       x46       0
 LI bnd       x47       0
 LI bnd       x48       0
 LI bnd       x49       0
 LI bnd       x50       0
 LI bnd       x51       0
 LI bnd       x52       0
 LI bnd       x53       0
 LI bnd       x54       0
 LI bnd       x55       0
 LI bnd       x56       0
 LI bnd       x57       0
 LI bnd       x58       0
 LI bnd       x59       0
 LI bnd       x60       0
ENDATA
